15	2	2
7271	7271	
439	877	1508	
722	119	195	
293	751	1249	
278	524	673	
648	560	1033	
632	786	1457	
178	564	839	
617	808	1081	
208	173	219	
215	921	1557	
359	893	1445	
488	633	1170	
357	669	840	
96	789	1077	
93	628	1129	
